13 965
525 7 502 7 423 7 316 13
535 8 494 8 323 11
535 8 494 8 422 11
520 7 473 7 349 7 148 9 3 11 808 15 647 20 565 30
520 7 444 7 352 7 190 9 19 11 841 15 712 23
520 7 444 7 352 7 190 9 19 11 841 15 712 23
525 7 482 7 358 7 165 12
525 7 479 7 355 7 106 9 927 13
525 7 479 7 355 7 106 9 927 13
525 7 482 7 365 7 115 9 943 13
525 7 482 7 365 7 115 9 943 13
525 7 482 7 365 7 115 9 943 13
525 7 482 7 365 7 115 9 943 13
